c description: Random 3-CNF over 9 variables and 27 clauses
p cnf 9 27
-1 -4 8 0
1 -5 -8 0
-3 -4 -7 0
-2 -7 -8 0
3 5 7 0
2 3 -6 0
5 -6 -7 0
-2 6 -8 0
5 7 -8 0
-3 5 8 0
-2 -6 8 0
-2 -4 -6 0
-6 -8 9 0
-4 -8 -9 0
-5 -8 -9 0
2 -4 6 0
1 -2 -4 0
-1 2 8 0
5 -6 -8 0
-2 3 -8 0
6 7 -9 0
-4 6 7 0
-1 -5 -6 0
2 7 9 0
3 -4 7 0
-3 6 -9 0
-1 -6 8 0